
-4.5
-4.24
-4.04
-3.6
-2.84
-1.54
-1.02
-0.88
-0.76
-0.7
-0.68
-0.62
-0.56
-0.54
-0.5
-0.46
-0.42
-0.4
-0.38
-0.38
-0.38
-0.36
-0.36
-0.36
-0.36
-0.36
-0.36
-0.36
-0.36
-0.36
-0.36
-0.36
-0.36
-0.36
-0.36
-0.36
-0.36